decision_x1=[0,4];
decision_x2=[0,4];
decision_x3=[0,4];
decision_x4=[0,4];
decision_x5=[0,4];
decision_x6=[0,4];
random_y1=[0,4];
random_y2=[0,4];
random_y3=[0,4];
constraint_x2_x1=[
0,1,3.3|
0,2,2|
0,3,7.2|
0,4,8.8|
1,0,3.1|
1,2,8.4|
1,3,9.1|
1,4,5.5|
2,0,9.6|
2,1,3|
2,3,2.3|
2,4,4.5|
3,0,4.1|
3,1,2.2|
3,2,1.7|
3,4,0.64|
4,0,1.7|
4,1,3.6|
4,2,7.2|
4,3,8.2|
];
constraint_x3_x2=[
0,1,4.5|
0,2,4.2|
0,3,7.4|
0,4,7.3|
1,0,3.5|
1,2,2|
1,3,5|
1,4,2.5|
2,0,9.6|
2,1,7.6|
2,3,1|
2,4,6.8|
3,0,0.032|
3,1,7.2|
3,2,3.4|
3,4,2.2|
4,0,8.1|
4,1,7.7|
4,2,2.9|
4,3,6.9|
];
constraint_x4_x1=[
0,1,5.2|
0,2,7|
0,3,3.4|
0,4,0.59|
1,0,7.3|
1,2,4|
1,3,5|
1,4,4.9|
2,0,7.6|
2,1,1.7|
2,3,0.38|
2,4,5.8|
3,0,8|
3,1,4.2|
3,2,8.7|
3,4,2.7|
4,0,6.9|
4,1,5|
4,2,6.5|
4,3,1.1|
];
constraint_x4_x2=[
0,1,4.1|
0,2,7.9|
0,3,0.52|
0,4,6.8|
1,0,7.7|
1,2,8.2|
1,3,5.6|
1,4,0.88|
2,0,3.6|
2,1,0.94|
2,3,0.15|
2,4,3.1|
3,0,7.9|
3,1,2.7|
3,2,9.2|
3,4,5.2|
4,0,7.9|
4,1,5.1|
4,2,5.6|
4,3,8|
];
constraint_x5_x3=[
0,1,7.6|
0,2,7.6|
0,3,0.28|
0,4,2.2|
1,0,6.4|
1,2,8.6|
1,3,9.4|
1,4,2.8|
2,0,1.4|
2,1,4.2|
2,3,4.9|
2,4,5.6|
3,0,6.4|
3,1,7.5|
3,2,7.3|
3,4,1.4|
4,0,8|
4,1,2.8|
4,2,2.7|
4,3,9|
];
constraint_x6_x3=[
0,1,3.9|
0,2,2.2|
0,3,4.6|
0,4,1.4|
1,0,4.8|
1,2,1.8|
1,3,7.4|
1,4,0.02|
2,0,4.2|
2,1,8.8|
2,3,6.3|
2,4,9.9|
3,0,4.6|
3,1,6.5|
3,2,5.2|
3,4,6|
4,0,4.1|
4,1,6.9|
4,2,8.1|
4,3,6.5|
];
constraint_x6_x4=[
0,1,8.8|
0,2,5.4|
0,3,9.1|
0,4,5.3|
1,0,3.9|
1,2,1.5|
1,3,5.2|
1,4,7.9|
2,0,3.3|
2,1,5.9|
2,3,5.8|
2,4,8|
3,0,0.34|
3,1,9.6|
3,2,8.4|
3,4,1.4|
4,0,4|
4,1,3.4|
4,2,7.4|
4,3,6.6|
];
constraint_x6_x5=[
0,1,3.4|
0,2,9.2|
0,3,9.6|
0,4,8.1|
1,0,9.2|
1,2,0.88|
1,3,1.5|
1,4,4.9|
2,0,5.1|
2,1,3|
2,3,9.7|
2,4,2.3|
3,0,1|
3,1,9.7|
3,2,2.4|
3,4,0.6|
4,0,4|
4,1,5.9|
4,2,9|
4,3,6.6|
];
constraint_x1_y1=[
0,0,5.2|
0,1,8.1|
0,2,8.7|
0,3,6|
0,4,3.4|
1,0,1.9|
1,1,2.6|
1,2,4.7|
1,3,3.1|
1,4,9.3|
2,0,7.7|
2,1,5.4|
2,2,4.4|
2,3,0.44|
2,4,0.87|
3,0,2.4|
3,1,2.9|
3,2,5.7|
3,3,9.1|
3,4,3.7|
4,0,8.5|
4,1,6.5|
4,2,4|
4,3,6.9|
4,4,8.2|
];
constraint_x2_y2=[
0,0,3.6|
0,1,8.9|
0,2,0.97|
0,3,7|
0,4,2.1|
1,0,8.6|
1,1,1.9|
1,2,1.8|
1,3,8.4|
1,4,2.3|
2,0,6|
2,1,7|
2,2,5.5|
2,3,5|
2,4,3.2|
3,0,7.7|
3,1,5.7|
3,2,7.4|
3,3,2.2|
3,4,1.7|
4,0,2.3|
4,1,0.11|
4,2,4|
4,3,8.6|
4,4,0.35|
];
constraint_x3_y3=[
0,0,0.35|
0,1,8.3|
0,2,8.4|
0,3,9.2|
0,4,9.4|
1,0,2.9|
1,1,8.4|
1,2,9.6|
1,3,7.9|
1,4,6.9|
2,0,1.6|
2,1,3.3|
2,2,9.1|
2,3,9.3|
2,4,0.66|
3,0,4|
3,1,2.1|
3,2,1.3|
3,3,3.1|
3,4,0.97|
4,0,5.7|
4,1,1.6|
4,2,6.4|
4,3,9.8|
4,4,1.1|
];
initial_distribution_y1=[0.24,0.27,0.12,0.11,0.26];
initial_distribution_y2=[0.087,0.051,0.23,0.31,0.32];
initial_distribution_y3=[0.13,0.24,0.18,0.19,0.26];
transition_y1=[
0.028,0.2,0.27,0.36,0.14|
0.44,0.15,0.088,0.3,0.034|
0.09,0.18,0.44,0.1,0.19|
0.36,0.29,0.059,0.062,0.23|
0.042,0.15,0.15,0.4,0.25|
];
transition_y2=[
0.093,0.14,0.31,0.057,0.4|
0.34,0.052,0.023,0.32,0.26|
0.27,0.33,0.2,0.18,0.011|
0.21,0.25,0.24,0.1,0.2|
0.31,0.023,0.25,0.27,0.15|
];
transition_y3=[
0.29,0.011,0.075,0.29,0.33|
0.36,0.19,0.068,0.28,0.096|
0.17,0.27,0.22,0.15,0.2|
0.28,0.12,0.15,0.37,0.077|
0.1,0.37,0.24,0.2,0.085|
];
